set VV := 0 1 2 3 4 5 6 7 8 9 10 11 12 ;
set VS := 0 1 2 3 4 5 6 7 8 9 10 11 12 13 14 15 16 17 18 19 20 21 22 23 24 25 26 27 28 29 30 ;
param cv := 
0 19
1 22
2 24
3 15
4 22
5 23
6 12
7 25
8 13
9 22
10 11
11 13
12 14
;
param cs := 
0 32
1 35
2 22
3 34
4 24
5 33
6 29
7 28
8 21
9 31
10 25
11 26
12 40
13 22
14 24
15 32
16 20
17 29
18 35
19 25
20 38
21 26
22 25
23 31
24 20
25 31
26 38
27 20
28 35
29 32
30 26
;
param bv:	 0 1 2 3 4 5 6 7 8 9 10 11 12 := 
		0 0 0 0 0 0 0 0 0 0 15 25 0 17 
		1 0 0 0 0 0 0 0 0 11 0 0 22 0 
		2 0 0 0 0 0 0 0 14 0 0 21 0 0 
		3 0 0 0 0 0 0 0 0 17 0 0 0 0 
		4 0 0 0 0 0 0 14 0 0 0 21 12 0 
		5 0 0 0 0 0 0 22 0 0 0 0 0 0 
		6 0 0 0 0 0 0 0 0 0 0 0 24 0 
		7 0 0 0 0 0 0 0 0 0 0 0 20 0 
		8 0 0 0 0 0 0 0 0 0 0 15 11 0 
		9 0 0 0 0 0 0 0 0 0 0 0 0 0 
		10 0 0 0 0 0 0 0 0 0 0 0 0 0 
		11 0 0 0 0 0 0 0 0 0 0 0 0 0 
		12 0 0 0 0 0 0 0 0 0 0 0 0 0 
;
param bs:	 0 1 2 3 4 5 6 7 8 9 10 11 12 13 14 15 16 17 18 19 20 21 22 23 24 25 26 27 28 29 30 := 
		0 0 0 0 0 0 0 0 0 40 0 0 35 0 0 0 0 0 0 0 0 30 37 28 0 0 0 0 0 0 0 0 
		1 0 0 24 30 0 0 0 0 0 0 39 0 33 0 0 0 0 0 0 0 0 0 0 0 0 0 0 0 0 0 0 
		2 0 24 0 27 0 36 0 0 0 35 0 0 0 0 0 0 0 0 0 0 0 0 0 0 0 0 36 0 0 0 0 
		3 0 30 27 0 0 0 0 0 0 0 26 0 0 0 0 0 29 0 0 0 0 0 0 0 0 0 0 0 0 0 24 
		4 0 0 0 0 0 0 0 24 0 0 0 28 0 0 20 0 0 0 0 0 0 0 0 0 0 0 0 37 0 22 35 
		5 0 0 36 0 0 0 0 0 0 24 0 40 0 0 0 0 0 0 0 0 0 0 0 30 0 0 0 0 0 0 0 
		6 0 0 0 0 0 0 0 0 0 0 0 0 0 0 0 0 0 0 0 0 0 0 0 22 0 40 0 0 39 0 0 
		7 0 0 0 0 24 0 0 0 23 0 28 0 0 0 0 0 0 0 0 0 0 0 0 0 0 0 0 0 0 0 0 
		8 40 0 0 0 0 0 0 23 0 0 0 0 0 0 0 0 0 0 0 0 0 0 0 35 0 21 0 0 0 0 0 
		9 0 0 35 0 0 24 0 0 0 0 0 0 0 0 0 0 0 0 0 0 0 0 0 0 0 0 0 0 0 0 0 
		10 0 39 0 26 0 0 0 28 0 0 0 0 0 0 0 0 0 39 25 0 0 0 0 0 22 0 0 0 0 0 27 
		11 35 0 0 0 28 40 0 0 0 0 0 0 0 0 33 0 0 0 0 0 0 25 0 36 0 0 0 0 0 0 22 
		12 0 33 0 0 0 0 0 0 0 0 0 0 0 0 0 0 0 0 36 0 0 0 0 30 0 0 0 25 0 34 0 
		13 0 0 0 0 0 0 0 0 0 0 0 0 0 0 0 0 0 0 0 0 0 0 36 0 0 0 0 0 0 0 0 
		14 0 0 0 0 20 0 0 0 0 0 0 33 0 0 0 0 0 23 0 0 0 0 0 0 0 39 0 0 0 0 0 
		15 0 0 0 0 0 0 0 0 0 0 0 0 0 0 0 0 0 0 0 0 0 0 0 36 0 35 0 0 0 0 0 
		16 0 0 0 29 0 0 0 0 0 0 0 0 0 0 0 0 0 0 0 0 24 0 0 0 0 0 0 0 0 0 0 
		17 0 0 0 0 0 0 0 0 0 0 39 0 0 0 23 0 0 0 0 0 0 0 0 0 0 0 0 0 0 0 0 
		18 0 0 0 0 0 0 0 0 0 0 25 0 36 0 0 0 0 0 0 0 0 0 24 0 0 0 0 40 0 0 0 
		19 0 0 0 0 0 0 0 0 0 0 0 0 0 0 0 0 0 0 0 0 0 0 0 0 0 22 0 0 0 0 0 
		20 30 0 0 0 0 0 0 0 0 0 0 0 0 0 0 0 24 0 0 0 0 0 0 0 29 0 0 0 0 0 0 
		21 37 0 0 0 0 0 0 0 0 0 0 25 0 0 0 0 0 0 0 0 0 0 0 0 0 0 0 0 0 0 0 
		22 28 0 0 0 0 0 0 0 0 0 0 0 0 36 0 0 0 0 24 0 0 0 0 24 34 0 0 0 0 0 0 
		23 0 0 0 0 0 30 22 0 35 0 0 36 30 0 0 36 0 0 0 0 0 0 24 0 0 0 0 0 0 0 0 
		24 0 0 0 0 0 0 0 0 0 0 22 0 0 0 0 0 0 0 0 0 29 0 34 0 0 0 0 0 0 0 0 
		25 0 0 0 0 0 0 40 0 21 0 0 0 0 0 39 35 0 0 0 22 0 0 0 0 0 0 0 0 0 0 0 
		26 0 0 36 0 0 0 0 0 0 0 0 0 0 0 0 0 0 0 0 0 0 0 0 0 0 0 0 0 0 24 0 
		27 0 0 0 0 37 0 0 0 0 0 0 0 25 0 0 0 0 0 40 0 0 0 0 0 0 0 0 0 0 0 0 
		28 0 0 0 0 0 0 39 0 0 0 0 0 0 0 0 0 0 0 0 0 0 0 0 0 0 0 0 0 0 0 0 
		29 0 0 0 0 22 0 0 0 0 0 0 0 34 0 0 0 0 0 0 0 0 0 0 0 0 0 24 0 0 0 36 
		30 0 0 0 24 35 0 0 0 0 0 27 22 0 0 0 0 0 0 0 0 0 0 0 0 0 0 0 0 0 36 0 
;
